100 10
271 835
484 498
303 313
712 601
393 556
554 250
657 403
312 964
624 587
332 588
504 499
598 302
525 644
481 937
491 911
389 574
183 361
539 353
45 646
410 288
772 498
381 621
315 744
423 613
400 270
438 399
263 319
444 590
792 547
671 608
34 871
545 570
261 377
459 676
677 833
425 835
494 365
684 552
142 290
550 217
255 451
364 547
661 984
16 641
598 524
558 358
440 683
200 624
744 523
534 490
389 577
280 465
579 694
503 535
387 315
448 808
693 759
534 245
132 609
333 655
580 706
231 558
507 563
386 816
240 710
527 694
703 365
423 407
613 463
22 603
55 769
555 334
567 937
543 961
406 412
291 347
134 453
789 425
576 748
537 583
528 955
576 565
405 594
527 550
677 988
511 594
739 580
757 720
172 770
213 433
569 937
785 941
492 660
133 321
627 673
547 457
549 770
308 615
364 772
776 670
